rows = 12;
cols = 12;
mines_count = 21;
not_mines = array2d(1..rows, 1..cols, [1,0,0,0,0,0,0,1,1,1,0,0,0,0,0,0,0,0,0,0,1,1,1,1,0,0,0,0,0,0,0,0,0,0,0,1,0,0,0,0,0,0,0,0,0,1,1,0,0,0,0,0,0,0,0,0,0,1,1,1,0,0,0,0,0,0,0,0,0,0,1,1,0,0,0,0,0,0,0,0,0,0,0,1,0,0,0,0,0,0,0,0,0,0,1,1,0,0,0,0,0,0,0,0,0,0,1,1,0,0,0,1,1,1,1,0,1,0,0,0,0,0,0,1,1,1,0,1,1,0,1,1,0,0,0,0,0,0,1,1,1,1,1,1,]);
fields = array2d(1..rows, 1..cols, [1,-1,1,0,0,0,1,1,1,1,-1,-1,1,1,1,0,0,0,1,-1,3,4,-1,3,0,0,0,0,0,0,1,2,-1,-1,-1,2,0,0,0,0,0,0,0,1,2,3,3,-1,0,1,1,1,0,0,0,0,1,1,2,1,0,1,-1,1,0,0,0,0,1,-1,2,1,0,1,1,1,0,0,0,0,1,2,-1,1,0,0,0,0,1,1,1,0,0,1,1,1,0,1,1,1,1,-1,2,1,2,2,3,2,0,2,-1,2,1,2,3,-1,3,-1,-1,-1,0,3,-1,3,0,1,-1,2,3,-1,4,2,0,2,-1,2,0,1,1,1,1,1,1,0,]);
